*SENSE:Minimize
NAME          MODEL
ROWS
 N  OBJ
 G  C0000000
 L  C0000001
 G  C0000002
 L  C0000003
 L  C0000004
 G  C0000005
 L  C0000006
 G  C0000007
 L  C0000008
 L  C0000009
 G  C0000010
 L  C0000011
 L  C0000012
 G  C0000013
 L  C0000014
 L  C0000015
 G  C0000016
 L  C0000017
 L  C0000018
 G  C0000019
 L  C0000020
 L  C0000021
 G  C0000022
 L  C0000023
 G  C0000024
 L  C0000025
 L  C0000026
 G  C0000027
 L  C0000028
 L  C0000029
 G  C0000030
 L  C0000031
 L  C0000032
 G  C0000033
 L  C0000034
 L  C0000035
 G  C0000036
 L  C0000037
 L  C0000038
 G  C0000039
 L  C0000040
 L  C0000041
 G  C0000042
 L  C0000043
 G  C0000044
 L  C0000045
 L  C0000046
 G  C0000047
 L  C0000048
 L  C0000049
 G  C0000050
 L  C0000051
 G  C0000052
 L  C0000053
 L  C0000054
 G  C0000055
 L  C0000056
 G  C0000057
 L  C0000058
 L  C0000059
 G  C0000060
 L  C0000061
 L  C0000062
 G  C0000063
 L  C0000064
 G  C0000065
 L  C0000066
 L  C0000067
 G  C0000068
 L  C0000069
 L  C0000070
 G  C0000071
 L  C0000072
 L  C0000073
 G  C0000074
 L  C0000075
 G  C0000076
 L  C0000077
 L  C0000078
 G  C0000079
 L  C0000080
 G  C0000081
 L  C0000082
 L  C0000083
 G  C0000084
 L  C0000085
 G  C0000086
 L  C0000087
 L  C0000088
 G  C0000089
 L  C0000090
 L  C0000091
 L  C0000092
 L  C0000093
 L  C0000094
 L  C0000095
 L  C0000096
 L  C0000097
 L  C0000098
 L  C0000099
 L  C0000100
 L  C0000101
 L  C0000102
 L  C0000103
 L  C0000104
 L  C0000105
 L  C0000106
 L  C0000107
 L  C0000108
 L  C0000109
 L  C0000110
 L  C0000111
 L  C0000112
 L  C0000113
 L  C0000114
 L  C0000115
 L  C0000116
 L  C0000117
 L  C0000118
 L  C0000119
 L  C0000120
 L  C0000121
 L  C0000122
 L  C0000123
 L  C0000124
 L  C0000125
 L  C0000126
 L  C0000127
 L  C0000128
 L  C0000129
 L  C0000130
 L  C0000131
 L  C0000132
 L  C0000133
 L  C0000134
 L  C0000135
 L  C0000136
 L  C0000137
 L  C0000138
 L  C0000139
 L  C0000140
 L  C0000141
 L  C0000142
 L  C0000143
 L  C0000144
 L  C0000145
 L  C0000146
 L  C0000147
 L  C0000148
 L  C0000149
 L  C0000150
 L  C0000151
 L  C0000152
 L  C0000153
 L  C0000154
 L  C0000155
 L  C0000156
 L  C0000157
 L  C0000158
 L  C0000159
 L  C0000160
 L  C0000161
 L  C0000162
 L  C0000163
 L  C0000164
 L  C0000165
 L  C0000166
 L  C0000167
COLUMNS
    X0000000  C0000000   1.000000000000e+00
    X0000000  C0000001   1.000000000000e+00
    X0000000  C0000003   1.000000000000e+00
    X0000000  C0000004  -1.000000000000e+00
    X0000000  OBJ       -1.000000000000e+00
    X0000001  C0000005   1.000000000000e+00
    X0000001  C0000006   1.000000000000e+00
    X0000001  C0000008   1.000000000000e+00
    X0000001  C0000009  -1.000000000000e+00
    X0000001  OBJ       -1.000000000000e+00
    X0000002  C0000042   1.000000000000e+00
    X0000002  C0000043   1.000000000000e+00
    X0000002  C0000045   1.000000000000e+00
    X0000002  C0000046  -1.000000000000e+00
    X0000002  OBJ       -1.000000000000e+00
    X0000003  C0000050   1.000000000000e+00
    X0000003  C0000051   1.000000000000e+00
    X0000003  C0000053   1.000000000000e+00
    X0000003  C0000054  -1.000000000000e+00
    X0000003  OBJ       -1.000000000000e+00
    X0000004  C0000055   1.000000000000e+00
    X0000004  C0000056   1.000000000000e+00
    X0000004  C0000058   1.000000000000e+00
    X0000004  C0000059  -1.000000000000e+00
    X0000004  OBJ       -1.000000000000e+00
    X0000005  C0000063   1.000000000000e+00
    X0000005  C0000064   1.000000000000e+00
    X0000005  C0000066   1.000000000000e+00
    X0000005  C0000067  -1.000000000000e+00
    X0000005  OBJ       -1.000000000000e+00
    X0000006  C0000074   1.000000000000e+00
    X0000006  C0000075   1.000000000000e+00
    X0000006  C0000077   1.000000000000e+00
    X0000006  C0000078  -1.000000000000e+00
    X0000006  OBJ       -1.000000000000e+00
    X0000007  C0000079   1.000000000000e+00
    X0000007  C0000080   1.000000000000e+00
    X0000007  C0000082   1.000000000000e+00
    X0000007  C0000083  -1.000000000000e+00
    X0000007  OBJ       -1.000000000000e+00
    X0000008  C0000084   1.000000000000e+00
    X0000008  C0000085   1.000000000000e+00
    X0000008  C0000087   1.000000000000e+00
    X0000008  C0000088  -1.000000000000e+00
    X0000008  OBJ       -1.000000000000e+00
    X0000009  C0000022   1.000000000000e+00
    X0000009  C0000023   1.000000000000e+00
    X0000009  C0000025   1.000000000000e+00
    X0000009  C0000026  -1.000000000000e+00
    X0000009  OBJ       -1.000000000000e+00
    X0000010  C0000002   1.000000000000e+00
    X0000010  OBJ        1.080000000000e+00
    X0000011  C0000007   1.000000000000e+00
    X0000011  OBJ        9.700000000000e-01
    X0000012  C0000036   1.000000000000e+00
    X0000013  C0000039   1.000000000000e+00
    X0000014  C0000044   1.000000000000e+00
    X0000014  OBJ        2.650000000000e+00
    X0000015  C0000047   1.000000000000e+00
    X0000015  OBJ        1.940000000000e+00
    X0000016  C0000052   1.000000000000e+00
    X0000016  OBJ        3.170000000000e+00
    X0000017  C0000057   1.000000000000e+00
    X0000017  OBJ        1.000000000000e+00
    X0000018  C0000060   1.000000000000e+00
    X0000019  C0000065   1.000000000000e+00
    X0000019  OBJ        3.330000000000e+00
    X0000020  C0000068   1.000000000000e+00
    X0000020  OBJ        1.810000000000e+00
    X0000021  C0000071   1.000000000000e+00
    X0000021  OBJ        1.280000000000e+00
    X0000022  C0000010   1.000000000000e+00
    X0000022  OBJ        1.800000000000e+00
    X0000023  C0000076   1.000000000000e+00
    X0000024  C0000081   1.000000000000e+00
    X0000025  C0000086   1.000000000000e+00
    X0000026  C0000089   1.000000000000e+00
    X0000027  C0000013   1.000000000000e+00
    X0000027  OBJ        7.400000000000e-01
    X0000028  C0000016   1.000000000000e+00
    X0000028  OBJ        7.100000000000e-01
    X0000029  C0000019   1.000000000000e+00
    X0000029  OBJ        1.360000000000e+00
    X0000030  C0000024   1.000000000000e+00
    X0000030  OBJ        1.250000000000e+00
    X0000031  C0000027   1.000000000000e+00
    X0000031  OBJ        1.710000000000e+00
    X0000032  C0000030   1.000000000000e+00
    X0000032  OBJ        1.750000000000e+00
    X0000033  C0000033   1.000000000000e+00
    X0000033  OBJ        1.950000000000e+00
    X0000034  C0000003   8.851161406000e+01
    X0000034  C0000004  -8.851161406000e+01
    X0000034  C0000008  -7.194244604000e+01
    X0000034  C0000009   7.194244604000e+01
    X0000034  C0000011  -4.734848485000e+00
    X0000034  C0000012   4.734848485000e+00
    X0000034  C0000017  -1.183431953000e+01
    X0000034  C0000018   1.183431953000e+01
    X0000034  OBJ       -5.000005742772e-09
    X0000035  C0000003  -7.194244604000e+01
    X0000035  C0000004   7.194244604000e+01
    X0000035  C0000008   8.504000000000e+01
    X0000035  C0000009  -8.504000000000e+01
    X0000035  C0000014  -7.892659826000e+00
    X0000035  C0000015   7.892659826000e+00
    X0000035  C0000020  -5.208333333000e+00
    X0000035  C0000021   5.208333333000e+00
    X0000035  OBJ        3.439198999986e-03
    X0000036  C0000031  -1.191895113000e+01
    X0000036  C0000032   1.191895113000e+01
    X0000036  C0000034  -1.191895113000e+01
    X0000036  C0000035   1.191895113000e+01
    X0000036  C0000037   6.876975060000e+01
    X0000036  C0000038  -6.876975060000e+01
    X0000036  C0000045  -2.100840336000e+01
    X0000036  C0000046   2.100840336000e+01
    X0000036  C0000048  -2.392344498000e+01
    X0000036  C0000049   2.392344498000e+01
    X0000036  OBJ        3.552713678801e-15
    X0000037  C0000031  -1.191895113000e+01
    X0000037  C0000032   1.191895113000e+01
    X0000037  C0000034  -1.191895113000e+01
    X0000037  C0000035   1.191895113000e+01
    X0000037  C0000040   5.519827249000e+01
    X0000037  C0000041  -5.519827249000e+01
    X0000037  C0000045  -2.100840336000e+01
    X0000037  C0000046   2.100840336000e+01
    X0000037  C0000087  -1.035196687000e+01
    X0000037  C0000088   1.035196687000e+01
    X0000037  OBJ       -1.776356839400e-15
    X0000038  C0000037  -2.392344498000e+01
    X0000038  C0000038   2.392344498000e+01
    X0000038  C0000048   4.963038585000e+01
    X0000038  C0000049  -4.963038585000e+01
    X0000038  C0000058  -2.570694087000e+01
    X0000038  C0000059   2.570694087000e+01
    X0000038  OBJ       -3.552713678801e-15
    X0000039  C0000053   9.747945422000e+01
    X0000039  C0000054  -9.747945422000e+01
    X0000039  C0000058  -5.780346821000e+01
    X0000039  C0000059   5.780346821000e+01
    X0000039  C0000077  -2.040816327000e+01
    X0000039  C0000078   2.040816327000e+01
    X0000039  C0000090  -1.926782274000e+01
    X0000039  C0000091   1.926782274000e+01
    X0000039  C0000092   5.780346821000e+01
    X0000039  C0000093  -5.780346821000e+01
    X0000039  C0000094   5.780346821000e+01
    X0000039  C0000095  -5.780346821000e+01
    X0000039  C0000096   5.780346821000e+01
    X0000039  C0000097  -5.780346821000e+01
    X0000039  C0000098   5.780346821000e+01
    X0000039  C0000099  -5.780346821000e+01
    X0000039  C0000100   5.780346821000e+01
    X0000039  C0000101  -5.780346821000e+01
    X0000039  C0000102   5.780346821000e+01
    X0000039  C0000103  -5.780346821000e+01
    X0000039  C0000104   5.780346821000e+01
    X0000039  C0000105  -5.780346821000e+01
    X0000039  C0000106   5.780346821000e+01
    X0000039  C0000107  -5.780346821000e+01
    X0000039  C0000108   5.780346821000e+01
    X0000039  C0000109  -5.780346821000e+01
    X0000039  C0000110   5.780346821000e+01
    X0000039  C0000111  -5.780346821000e+01
    X0000039  C0000112   5.780346821000e+01
    X0000039  C0000113  -5.780346821000e+01
    X0000039  C0000114   5.780346821000e+01
    X0000039  C0000115  -5.780346821000e+01
    X0000039  C0000116   5.780346821000e+01
    X0000039  C0000117  -5.780346821000e+01
    X0000039  C0000118   5.780346821000e+01
    X0000039  C0000119  -5.780346821000e+01
    X0000039  C0000120   5.780346821000e+01
    X0000039  C0000121  -5.780346821000e+01
    X0000039  C0000122   5.780346821000e+01
    X0000039  C0000123  -5.780346821000e+01
    X0000039  C0000124   5.780346821000e+01
    X0000039  C0000125  -5.780346821000e+01
    X0000039  C0000126   5.780346821000e+01
    X0000039  C0000127  -5.780346821000e+01
    X0000039  C0000128   5.780346821000e+01
    X0000039  C0000129  -5.780346821000e+01
    X0000039  C0000130   5.780346821000e+01
    X0000039  C0000131  -5.780346821000e+01
    X0000039  C0000132   5.780346821000e+01
    X0000039  C0000133  -5.780346821000e+01
    X0000039  C0000134   5.780346821000e+01
    X0000039  C0000135  -5.780346821000e+01
    X0000039  C0000136   5.780346821000e+01
    X0000039  C0000137  -5.780346821000e+01
    X0000039  C0000138   5.780346821000e+01
    X0000039  C0000139  -5.780346821000e+01
    X0000039  C0000140   5.780346821000e+01
    X0000039  C0000141  -5.780346821000e+01
    X0000039  C0000142   5.780346821000e+01
    X0000039  C0000143  -5.780346821000e+01
    X0000039  C0000144   5.780346821000e+01
    X0000039  C0000145  -5.780346821000e+01
    X0000039  C0000146   5.780346821000e+01
    X0000039  C0000147  -5.780346821000e+01
    X0000039  C0000148   5.780346821000e+01
    X0000039  C0000149  -5.780346821000e+01
    X0000039  C0000150   5.780346821000e+01
    X0000039  C0000151  -5.780346821000e+01
    X0000039  C0000152   5.780346821000e+01
    X0000039  C0000153  -5.780346821000e+01
    X0000039  C0000154   5.780346821000e+01
    X0000039  C0000155  -5.780346821000e+01
    X0000039  C0000156   5.780346821000e+01
    X0000039  C0000157  -5.780346821000e+01
    X0000039  C0000158   5.780346821000e+01
    X0000039  C0000159  -5.780346821000e+01
    X0000039  C0000160   5.780346821000e+01
    X0000039  C0000161  -5.780346821000e+01
    X0000039  C0000162   5.780346821000e+01
    X0000039  C0000163  -5.780346821000e+01
    X0000039  C0000164   5.780346821000e+01
    X0000039  C0000165  -5.780346821000e+01
    X0000039  C0000166   5.780346821000e+01
    X0000039  C0000167  -5.780346821000e+01
    X0000039  OBJ        3.552713678801e-15
    X0000040  C0000048  -2.570694087000e+01
    X0000040  C0000049   2.570694087000e+01
    X0000040  C0000053  -5.780346821000e+01
    X0000040  C0000054   5.780346821000e+01
    X0000040  C0000058   1.654104910000e+02
    X0000040  C0000059  -1.654104910000e+02
    X0000040  C0000061  -3.861003861000e+01
    X0000040  C0000062   3.861003861000e+01
    X0000040  C0000069  -4.329004329000e+01
    X0000040  C0000070   4.329004329000e+01
    X0000040  C0000092  -5.780346821000e+01
    X0000040  C0000093   5.780346821000e+01
    X0000040  C0000094  -5.780346821000e+01
    X0000040  C0000095   5.780346821000e+01
    X0000040  C0000096  -5.780346821000e+01
    X0000040  C0000097   5.780346821000e+01
    X0000040  C0000098  -5.780346821000e+01
    X0000040  C0000099   5.780346821000e+01
    X0000040  C0000100  -5.780346821000e+01
    X0000040  C0000101   5.780346821000e+01
    X0000040  C0000102  -5.780346821000e+01
    X0000040  C0000103   5.780346821000e+01
    X0000040  C0000104  -5.780346821000e+01
    X0000040  C0000105   5.780346821000e+01
    X0000040  C0000106  -5.780346821000e+01
    X0000040  C0000107   5.780346821000e+01
    X0000040  C0000108  -5.780346821000e+01
    X0000040  C0000109   5.780346821000e+01
    X0000040  C0000110  -5.780346821000e+01
    X0000040  C0000111   5.780346821000e+01
    X0000040  C0000112  -5.780346821000e+01
    X0000040  C0000113   5.780346821000e+01
    X0000040  C0000114  -5.780346821000e+01
    X0000040  C0000115   5.780346821000e+01
    X0000040  C0000116  -5.780346821000e+01
    X0000040  C0000117   5.780346821000e+01
    X0000040  C0000118  -5.780346821000e+01
    X0000040  C0000119   5.780346821000e+01
    X0000040  C0000120  -5.780346821000e+01
    X0000040  C0000121   5.780346821000e+01
    X0000040  C0000122  -5.780346821000e+01
    X0000040  C0000123   5.780346821000e+01
    X0000040  C0000124  -5.780346821000e+01
    X0000040  C0000125   5.780346821000e+01
    X0000040  C0000126  -5.780346821000e+01
    X0000040  C0000127   5.780346821000e+01
    X0000040  C0000128  -5.780346821000e+01
    X0000040  C0000129   5.780346821000e+01
    X0000040  C0000130  -5.780346821000e+01
    X0000040  C0000131   5.780346821000e+01
    X0000040  C0000132  -5.780346821000e+01
    X0000040  C0000133   5.780346821000e+01
    X0000040  C0000134  -5.780346821000e+01
    X0000040  C0000135   5.780346821000e+01
    X0000040  C0000136  -5.780346821000e+01
    X0000040  C0000137   5.780346821000e+01
    X0000040  C0000138  -5.780346821000e+01
    X0000040  C0000139   5.780346821000e+01
    X0000040  C0000140  -5.780346821000e+01
    X0000040  C0000141   5.780346821000e+01
    X0000040  C0000142  -5.780346821000e+01
    X0000040  C0000143   5.780346821000e+01
    X0000040  C0000144  -5.780346821000e+01
    X0000040  C0000145   5.780346821000e+01
    X0000040  C0000146  -5.780346821000e+01
    X0000040  C0000147   5.780346821000e+01
    X0000040  C0000148  -5.780346821000e+01
    X0000040  C0000149   5.780346821000e+01
    X0000040  C0000150  -5.780346821000e+01
    X0000040  C0000151   5.780346821000e+01
    X0000040  C0000152  -5.780346821000e+01
    X0000040  C0000153   5.780346821000e+01
    X0000040  C0000154  -5.780346821000e+01
    X0000040  C0000155   5.780346821000e+01
    X0000040  C0000156  -5.780346821000e+01
    X0000040  C0000157   5.780346821000e+01
    X0000040  C0000158  -5.780346821000e+01
    X0000040  C0000159   5.780346821000e+01
    X0000040  C0000160  -5.780346821000e+01
    X0000040  C0000161   5.780346821000e+01
    X0000040  C0000162  -5.780346821000e+01
    X0000040  C0000163   5.780346821000e+01
    X0000040  C0000164  -5.780346821000e+01
    X0000040  C0000165   5.780346821000e+01
    X0000040  C0000166  -5.780346821000e+01
    X0000040  C0000167   5.780346821000e+01
    X0000040  OBJ       -1.999998033853e-08
    X0000041  C0000058  -3.861003861000e+01
    X0000041  C0000059   3.861003861000e+01
